(set-info :smt-lib-version 2.6)
(set-logic QF_S)
(set-info :source |
Generated by: Murphy Berzish, Mitja Kulczynski, Federico Mora, Florin Manea, Joel Day, Dirk Nowotka, Vijay Ganesh, Zhengyang Lu
Generated on: 2020-10-01
Description: Translated from a collection of real-world regex queries, AutomataArk, collected by Loris D’Antoni and Fang Wang: https://github.com/lorisdanto/automatark
Application: Evaluate solvers on real-world regex queries
Target solver: Z3str3RE, CVC4, OSTRICH, Z3seq, Z3str3, Z3-Trau
Publications: Berzish, M., Kulczynski, M., Mora, F., Manea, F., Day, J. D., Nowotka, D., & Ganesh, V. (2021, July). An SMT solver for regular expressions and linear arithmetic over string length. In CAV 2021.
|)
(set-info :license "https://creativecommons.org/licenses/by/4.0/")
(set-info :category "industrial")
(set-info :status sat)

(declare-const X String)
(assert (not (str.in_re X (re.++ (str.to_re "/php?jnlp=") ((_ re.loop 10 10) (re.union (re.range "a" "f") (re.range "0" "9"))) (str.to_re ",/U\u{a}")))))
(assert (not (str.in_re X (re.union (re.++ (re.opt (str.to_re "-")) (re.range "0" "9")) (re.++ (str.to_re "\u{a}") (re.opt (str.to_re "-")) (str.to_re "1") (re.range "0" "2"))))))
(assert (not (str.in_re X (re.++ (str.to_re "User-Agent:") (re.* re.allchar) (str.to_re "Host:") (re.* re.allchar) (str.to_re "w3whowww.sogou.com\u{a}")))))
(assert (not (str.in_re X (re.++ (re.* (re.union (str.to_re "P") (str.to_re "|") (str.to_re "p"))) (re.* (re.union (str.to_re "OST") (str.to_re "ost"))) (re.* (str.to_re ".")) (re.* (re.union (str.to_re " ") (str.to_re "\u{9}") (str.to_re "\u{a}") (str.to_re "\u{c}") (str.to_re "\u{d}"))) (re.* (re.union (str.to_re "O") (str.to_re "|") (str.to_re "o") (str.to_re "0"))) (re.* (re.union (str.to_re "ffice") (str.to_re "FFICE"))) (re.* (str.to_re ".")) (re.* (re.union (str.to_re " ") (str.to_re "\u{9}") (str.to_re "\u{a}") (str.to_re "\u{c}") (str.to_re "\u{d}"))) (re.union (str.to_re "B") (str.to_re "|") (str.to_re "b")) (re.union (str.to_re "O") (str.to_re "|") (str.to_re "o") (str.to_re "0")) (re.union (str.to_re "X") (str.to_re "|") (str.to_re "x")) (str.to_re "\u{a}")))))
(assert (not (str.in_re X (re.++ (str.to_re "<") (re.+ (re.union (re.range "0" "9") (re.range "A" "Z") (re.range "a" "z") (str.to_re "_"))) (re.* (re.++ (re.* (re.union (str.to_re " ") (str.to_re "\u{9}") (str.to_re "\u{a}") (str.to_re "\u{c}") (str.to_re "\u{d}"))) (re.union (re.++ (re.+ (re.union (str.to_re "-") (re.range "0" "9") (re.range "A" "Z") (re.range "a" "z") (str.to_re "_"))) (str.to_re "=\u{22}") (re.* (re.comp (str.to_re "\u{22}"))) (str.to_re "\u{22}")) (re.++ (re.+ (re.union (str.to_re "-") (re.range "0" "9") (re.range "A" "Z") (re.range "a" "z") (str.to_re "_"))) (str.to_re "='") (re.* (re.comp (str.to_re "'"))) (str.to_re "'")) (re.++ (re.+ (re.union (str.to_re "-") (re.range "0" "9") (re.range "A" "Z") (re.range "a" "z") (str.to_re "_"))) (str.to_re "=") (re.+ (re.union (str.to_re "'") (str.to_re "\u{22}") (str.to_re "<") (str.to_re ">") (str.to_re " ") (str.to_re "\u{9}") (str.to_re "\u{a}") (str.to_re "\u{c}") (str.to_re "\u{d}"))))))) (str.to_re ">\u{a}") (re.* (re.union (str.to_re " ") (str.to_re "\u{9}") (str.to_re "\u{a}") (str.to_re "\u{c}") (str.to_re "\u{d}"))) (re.opt (str.to_re "/")) (re.* (re.union (str.to_re " ") (str.to_re "\u{9}") (str.to_re "\u{a}") (str.to_re "\u{c}") (str.to_re "\u{d}"))) (re.* (re.union (str.to_re " ") (str.to_re "\u{9}") (str.to_re "\u{a}") (str.to_re "\u{c}") (str.to_re "\u{d}"))) (re.opt (str.to_re "/")) (re.* (re.union (str.to_re " ") (str.to_re "\u{9}") (str.to_re "\u{a}") (str.to_re "\u{c}") (str.to_re "\u{d}")))))))
(check-sat)

(exit)
